results/res_prop_muc/res_Cimatti_mathsat_cores/QF_UF/NEQ048_size7.smt.smt2.out

real	1m48.647s
user	1m41.433s
sys	0m1.236s
